NAME 
ROWS
 N  OBJ
 L  R0      
 L  R1      
 E  R2      
 E  R3      
 E  R4      
 E  R5      
 E  R6      
 E  R7      
 E  R8      
 E  R9      
 E  R10     
 E  R11     
 E  R12     
 E  R13     
 E  R14     
 E  R15     
 E  R16     
 E  R17     
 E  R18     
 E  R19     
 E  R20     
 E  R21     
COLUMNS
    MARKER    'MARKER'                 'INTORG'
    I0(13)    OBJ       -13
    I0(13)    R0        120
    I0(13)    R1        108
    I0(13)    R2        11
    I0(13)    R3        6
    I0(13)    R4        17
    I0(13)    R5        4
    I0(13)    R6        19
    I0(13)    R7        17
    I0(13)    R8        11
    I0(13)    R9        10
    I0(13)    R10       19
    I0(13)    R11       13
    I0(13)    R21       1
    I1(12)    OBJ       102
    I1(12)    R0        181
    I1(12)    R1        -124
    I1(12)    R2        6
    I1(12)    R3        6
    I1(12)    R4        7
    I1(12)    R5        14
    I1(12)    R6        18
    I1(12)    R7        16
    I1(12)    R8        17
    I1(12)    R9        13
    I1(12)    R11       15
    I1(12)    R21       1
    I2(13)    OBJ       -191
    I2(13)    R0        107
    I2(13)    R1        -35
    I2(13)    R2        19
    I2(13)    R3        16
    I2(13)    R4        14
    I2(13)    R5        16
    I2(13)    R6        19
    I2(13)    R7        8
    I2(13)    R8        18
    I2(13)    R9        19
    I2(13)    R10       2
    I2(13)    R11       15
    I2(13)    R21       1
    I3(11)    OBJ       16
    I3(11)    R0        9
    I3(11)    R1        100
    I3(11)    R3        5
    I3(11)    R4        8
    I3(11)    R5        14
    I3(11)    R6        5
    I3(11)    R7        15
    I3(11)    R8        12
    I3(11)    R9        18
    I3(11)    R11       19
    I3(11)    R21       1
    I4(12)    OBJ       192
    I4(12)    R0        -181
    I4(12)    R1        -160
    I4(12)    R3        11
    I4(12)    R4        13
    I4(12)    R5        4
    I4(12)    R6        10
    I4(12)    R7        4
    I4(12)    R8        2
    I4(12)    R9        3
    I4(12)    R10       5
    I4(12)    R11       1
    I4(12)    R21       1
    I5(12)    OBJ       101
    I5(12)    R0        -181
    I5(12)    R1        -118
    I5(12)    R2        8
    I5(12)    R3        12
    I5(12)    R4        5
    I5(12)    R5        12
    I5(12)    R7        14
    I5(12)    R8        13
    I5(12)    R9        7
    I5(12)    R10       -1
    I5(12)    R11       6
    I5(12)    R21       1
    I6(6)     OBJ       -107
    I6(6)     R0        11
    I6(6)     R1        9
    I6(6)     R4        1
    I6(6)     R7        8
    I6(6)     R9        8
    I6(6)     R21       1
    I7(13)    OBJ       75
    I7(13)    R0        -124
    I7(13)    R1        99
    I7(13)    R2        5
    I7(13)    R3        12
    I7(13)    R4        4
    I7(13)    R5        12
    I7(13)    R6        2
    I7(13)    R7        8
    I7(13)    R8        15
    I7(13)    R9        13
    I7(13)    R10       3
    I7(13)    R11       19
    I7(13)    R21       1
    I8(11)    OBJ       -97
    I8(11)    R0        -106
    I8(11)    R1        79
    I8(11)    R2        2
    I8(11)    R4        7
    I8(11)    R5        5
    I8(11)    R6        19
    I8(11)    R8        13
    I8(11)    R9        10
    I8(11)    R10       18
    I8(11)    R11       -1
    I8(11)    R21       1
    I9(9)     OBJ       86
    I9(9)     R0        19
    I9(9)     R1        23
    I9(9)     R2        8
    I9(9)     R4        4
    I9(9)     R5        10
    I9(9)     R6        10
    I9(9)     R7        1
    I9(9)     R11       17
    I9(9)     R21       1
    MARKER    'MARKER'                 'INTEND'
    C10(20)   R0        -6
    C10(20)   R1        1
    C10(20)   R2        4
    C10(20)   R3        17
    C10(20)   R4        15
    C10(20)   R5        3
    C10(20)   R6        13
    C10(20)   R7        4
    C10(20)   R8        12
    C10(20)   R9        5
    C10(20)   R10       12
    C10(20)   R11       16
    C10(20)   R12       12
    C10(20)   R13       2
    C10(20)   R14       5
    C10(20)   R15       2
    C10(20)   R17       14
    C10(20)   R18       19
    C10(20)   R19       16
    C10(20)   R20       12
    C11(13)   OBJ       4
    C11(13)   R0        -3
    C11(13)   R1        4
    C11(13)   R2        1
    C11(13)   R4        17
    C11(13)   R9        16
    C11(13)   R10       8
    C11(13)   R12       19
    C11(13)   R13       12
    C11(13)   R14       15
    C11(13)   R15       2
    C11(13)   R17       16
    C11(13)   R18       2
    C11(13)   R20       8
    C12(17)   OBJ       6
    C12(17)   R0        1
    C12(17)   R1        2
    C12(17)   R2        12
    C12(17)   R3        15
    C12(17)   R4        12
    C12(17)   R5        4
    C12(17)   R6        15
    C12(17)   R7        16
    C12(17)   R8        15
    C12(17)   R9        15
    C12(17)   R10       1
    C12(17)   R11       12
    C12(17)   R13       4
    C12(17)   R14       -1
    C12(17)   R15       15
    C12(17)   R16       17
    C12(17)   R17       13
    C13(15)   OBJ       -9
    C13(15)   R0        2
    C13(15)   R1        2
    C13(15)   R2        9
    C13(15)   R3        9
    C13(15)   R4        9
    C13(15)   R7        13
    C13(15)   R8        11
    C13(15)   R11       15
    C13(15)   R13       13
    C13(15)   R15       8
    C13(15)   R16       12
    C13(15)   R17       16
    C13(15)   R18       17
    C13(15)   R19       2
    C13(15)   R20       11
    C14(19)   OBJ       4
    C14(19)   R0        3
    C14(19)   R1        -8
    C14(19)   R2        12
    C14(19)   R3        11
    C14(19)   R4        17
    C14(19)   R6        17
    C14(19)   R7        6
    C14(19)   R8        13
    C14(19)   R9        10
    C14(19)   R10       1
    C14(19)   R11       13
    C14(19)   R13       3
    C14(19)   R14       4
    C14(19)   R15       3
    C14(19)   R16       4
    C14(19)   R17       12
    C14(19)   R18       16
    C14(19)   R19       6
    C14(19)   R20       18
    C15(17)   OBJ       4
    C15(17)   R0        -9
    C15(17)   R1        6
    C15(17)   R2        7
    C15(17)   R3        3
    C15(17)   R4        1
    C15(17)   R5        17
    C15(17)   R6        11
    C15(17)   R8        13
    C15(17)   R10       17
    C15(17)   R11       7
    C15(17)   R12       1
    C15(17)   R15       15
    C15(17)   R16       2
    C15(17)   R17       8
    C15(17)   R18       1
    C15(17)   R19       12
    C15(17)   R20       3
    C16(16)   OBJ       4
    C16(16)   R0        -9
    C16(16)   R1        -9
    C16(16)   R2        -1
    C16(16)   R6        9
    C16(16)   R7        4
    C16(16)   R8        2
    C16(16)   R9        -1
    C16(16)   R10       12
    C16(16)   R11       17
    C16(16)   R13       16
    C16(16)   R14       16
    C16(16)   R15       18
    C16(16)   R17       18
    C16(16)   R18       18
    C16(16)   R19       8
    C16(16)   R20       2
    C17(16)   OBJ       -6
    C17(16)   R0        -9
    C17(16)   R1        7
    C17(16)   R2        12
    C17(16)   R4        14
    C17(16)   R5        19
    C17(16)   R6        18
    C17(16)   R7        14
    C17(16)   R8        5
    C17(16)   R9        14
    C17(16)   R11       8
    C17(16)   R12       5
    C17(16)   R13       5
    C17(16)   R14       16
    C17(16)   R15       13
    C17(16)   R16       13
    C17(16)   R20       17
    C18(17)   OBJ       -5
    C18(17)   R0        4
    C18(17)   R1        2
    C18(17)   R2        8
    C18(17)   R3        5
    C18(17)   R5        9
    C18(17)   R6        2
    C18(17)   R7        8
    C18(17)   R8        8
    C18(17)   R9        6
    C18(17)   R12       10
    C18(17)   R13       5
    C18(17)   R14       15
    C18(17)   R15       1
    C18(17)   R17       1
    C18(17)   R18       11
    C18(17)   R19       14
    C18(17)   R20       7
    C19(18)   OBJ       -2
    C19(18)   R0        1
    C19(18)   R1        8
    C19(18)   R2        17
    C19(18)   R3        19
    C19(18)   R4        6
    C19(18)   R6        11
    C19(18)   R7        13
    C19(18)   R8        3
    C19(18)   R9        4
    C19(18)   R10       8
    C19(18)   R11       7
    C19(18)   R12       17
    C19(18)   R13       -1
    C19(18)   R14       2
    C19(18)   R15       6
    C19(18)   R16       12
    C19(18)   R19       5
    C19(18)   R20       15
    C20(1)    R2        1
    C21(1)    R3        1
    C22(1)    R4        1
    C23(1)    R5        1
    C24(1)    R6        1
    C25(1)    R7        1
    C26(1)    R8        1
    C27(1)    R9        1
    C28(1)    R10       1
    C29(1)    R11       1
    C30(1)    R12       1
    C31(1)    R13       1
    C32(1)    R14       1
    C33(1)    R15       1
    C34(1)    R16       1
    C35(1)    R17       1
    C36(1)    R18       1
    C37(1)    R19       1
    C38(1)    R20       1
    C39(1)    R21       1
RHS
    RHS1      R0        2.2944444444444446e+02
    RHS1      R1        -5.6555555555555557e+01
    RHS1      R2        58
    RHS1      R3        96
    RHS1      R4        80
    RHS1      R5        62
    RHS1      R6        84
    RHS1      R7        91
    RHS1      R8        61
    RHS1      R9        55
    RHS1      R10       68
    RHS1      R11       99
    RHS1      R12       59
    RHS1      R13       53
    RHS1      R14       73
    RHS1      R15       64
    RHS1      R16       72
    RHS1      R17       51
    RHS1      R18       66
    RHS1      R19       99
    RHS1      R20       75
    RHS1      R21       3
BOUNDS
 UP BND1      I0(13)    2
 UP BND1      I1(12)    2
 UP BND1      I2(13)    2
 UP BND1      I3(11)    2
 UP BND1      I4(12)    2
 UP BND1      I5(12)    2
 UP BND1      I6(6)     2
 UP BND1      I7(13)    2
 UP BND1      I8(11)    2
 UP BND1      I9(9)     2
ENDATA
